p cnf 14 64
7 -9 10 0
7 10 11 0
6 -7 10 0
-1 2 3 0
3 8 -11 0
-1 -13 -14 0
-1 6 -13 0
-2 -7 -9 0
-2 -8 9 0
-7 -8 -12 0
-4 -11 13 0
-2 8 -10 0
9 10 -12 0
9 10 14 0
4 6 -14 0
-1 -9 -11 0
-11 12 13 0
-4 -7 -12 0
-2 -3 14 0
-2 -8 -13 0
7 12 13 0
4 -6 12 0
-2 -3 10 0
5 6 -10 0
2 -10 11 0
-7 -10 14 0
1 10 12 0
4 -10 -13 0
4 8 13 0
-4 -8 -13 0
-1 -2 -9 0
5 -6 9 0
-4 -8 10 0
-1 -2 13 0
7 9 -13 0
-1 7 14 0
3 -6 -13 0
-3 -6 -7 0
-1 -9 12 0
-3 8 -10 0
-1 8 9 0
1 -7 -11 0
-3 -8 11 0
1 12 14 0
2 5 -8 0
-6 7 14 0
1 6 14 0
-1 -4 -12 0
-1 6 -14 0
11 12 14 0
1 4 10 0
2 -5 12 0
2 -3 -10 0
-6 -8 -9 0
-1 -2 -8 0
-2 4 -12 0
-2 -5 -7 0
-2 -10 -12 0
2 10 14 0
3 7 8 0
-1 8 12 0
6 -7 -10 0
6 10 13 0
8 9 -11 0
